NAME : amz1754.140943_94443.tour
COMMENT : Cost = 140943_94443
COMMENT : Found by LKH-AMZ [Keld Helsgaun] Sun May 11 14:59:43 2025
COMMENT : TW viol.: 0 #: 0
TYPE : TOUR
DIMENSION : 114
TOUR_SECTION
72
16
97
41
25
99
30
5
54
12
63
70
21
40
43
47
107
10
46
68
95
29
2
17
113
39
112
71
75
80
57
35
51
32
73
11
7
34
86
50
37
100
31
9
13
62
18
77
4
81
3
26
24
1
92
28
114
64
84
36
101
78
89
66
52
27
65
110
87
85
108
83
82
109
55
44
104
58
20
98
23
105
96
90
69
106
42
94
111
103
48
14
6
45
33
102
49
60
67
53
79
19
88
38
15
59
22
74
91
8
76
56
93
61
-1
EOF
